n_machines = 5;
n_resources = 8;
n_jobs = 55;
horizon = 29228;
LB = 7734;
n_jobs_per_resource = [5, 9, 13, 6, 4, 1, 4, 13];
duration = [859, 844, 459, 955, 311, 446, 908, 71, 413, 453, 325, 717, 759, 623, 571, 686, 940, 395, 355, 804, 534, 453, 494, 843, 258, 945, 456, 394, 19, 548, 781, 881, 138, 422, 209, 685, 391, 115, 42, 87, 597, 589, 195, 253, 979, 521, 75, 625, 420, 932, 499, 634, 864, 752, 704]